T = 20;
M = 10;
R = 3;

min_makespan = 16;
max_makespan = 4096;

test_duration = [
    710,116,710,679,142,700,738,785,753, 57,
    256,438,462,650,270,723,628, 81,710,377
];

test_machines = [
    {},{},{},
    {1,4,5},{},{},
    {},{},{},
    {},{4},{},
    {},{9,2},{},
    {4,10},{2,8,7},{4,5,8,7},
    {5,4,3,6},{}
];

test_resources = [
    {2},{2},{},
    {},{},{},
    {},{},{},
    {},{},{},
    {},{},{},
    {},{},{},
    {},{}
];